p cnf 510 2217
-46 0
-45 47 48 49 50 51 52 53 54 0
-47 -48 0
-47 -49 0
-47 -50 0
-47 -51 0
-47 -52 0
-47 -53 0
-47 -54 0
-48 -49 0
-48 -50 0
-48 -51 0
-48 -52 0
-48 -53 0
-48 -54 0
-49 -50 0
-49 -51 0
-49 -52 0
-49 -53 0
-49 -54 0
-50 -51 0
-50 -52 0
-50 -53 0
-50 -54 0
-51 -52 0
-51 -53 0
-51 -54 0
-52 -53 0
-52 -54 0
-53 -54 0
-45 55 56 57 58 59 60 61 62 0
-55 -56 0
-55 -57 0
-55 -58 0
-55 -59 0
-55 -60 0
-55 -61 0
-55 -62 0
-56 -57 0
-56 -58 0
-56 -59 0
-56 -60 0
-56 -61 0
-56 -62 0
-57 -58 0
-57 -59 0
-57 -60 0
-57 -61 0
-57 -62 0
-58 -59 0
-58 -60 0
-58 -61 0
-58 -62 0
-59 -60 0
-59 -61 0
-59 -62 0
-60 -61 0
-60 -62 0
-61 -62 0
-45 -57 53 0
-45 -60 48 0
-45 -61 49 0
-45 -56 52 0
-45 -55 51 0
-45 -59 47 0
-45 -58 54 0
-45 -62 50 0
-45 57 60 61 56 55 59 58 62 0
-45 47 54 53 0
-1 45 0
-45 1 0
-64 0
-63 66 67 68 69 70 71 72 73 0
-66 -67 0
-66 -68 0
-66 -69 0
-66 -70 0
-66 -71 0
-66 -72 0
-66 -73 0
-67 -68 0
-67 -69 0
-67 -70 0
-67 -71 0
-67 -72 0
-67 -73 0
-68 -69 0
-68 -70 0
-68 -71 0
-68 -72 0
-68 -73 0
-69 -70 0
-69 -71 0
-69 -72 0
-69 -73 0
-70 -71 0
-70 -72 0
-70 -73 0
-71 -72 0
-71 -73 0
-72 -73 0
-63 74 75 76 77 78 79 80 81 0
-74 -75 0
-74 -76 0
-74 -77 0
-74 -78 0
-74 -79 0
-74 -80 0
-74 -81 0
-75 -76 0
-75 -77 0
-75 -78 0
-75 -79 0
-75 -80 0
-75 -81 0
-76 -77 0
-76 -78 0
-76 -79 0
-76 -80 0
-76 -81 0
-77 -78 0
-77 -79 0
-77 -80 0
-77 -81 0
-78 -79 0
-78 -80 0
-78 -81 0
-79 -80 0
-79 -81 0
-80 -81 0
-63 66 72 73 0
-63 -76 72 0
-63 -74 70 0
-63 -79 67 0
-63 -81 69 0
-63 -75 71 0
-63 -80 68 0
-63 -78 66 0
-63 -77 73 0
-63 76 74 79 81 75 80 78 77 0
-1 63 0
-63 1 0
-83 0
-82 85 86 87 88 89 90 91 92 0
-85 -86 0
-85 -87 0
-85 -88 0
-85 -89 0
-85 -90 0
-85 -91 0
-85 -92 0
-86 -87 0
-86 -88 0
-86 -89 0
-86 -90 0
-86 -91 0
-86 -92 0
-87 -88 0
-87 -89 0
-87 -90 0
-87 -91 0
-87 -92 0
-88 -89 0
-88 -90 0
-88 -91 0
-88 -92 0
-89 -90 0
-89 -91 0
-89 -92 0
-90 -91 0
-90 -92 0
-91 -92 0
-82 93 94 95 96 97 98 99 100 0
-93 -94 0
-93 -95 0
-93 -96 0
-93 -97 0
-93 -98 0
-93 -99 0
-93 -100 0
-94 -95 0
-94 -96 0
-94 -97 0
-94 -98 0
-94 -99 0
-94 -100 0
-95 -96 0
-95 -97 0
-95 -98 0
-95 -99 0
-95 -100 0
-96 -97 0
-96 -98 0
-96 -99 0
-96 -100 0
-97 -98 0
-97 -99 0
-97 -100 0
-98 -99 0
-98 -100 0
-99 -100 0
-82 91 92 85 0
-82 -99 87 0
-82 -95 91 0
-82 -97 85 0
-82 -100 88 0
-82 -98 86 0
-82 -94 90 0
-82 -96 92 0
-82 -93 89 0
-82 99 95 97 100 98 94 96 93 0
-1 82 0
-82 1 0
-102 0
-101 104 105 106 107 108 109 110 111 0
-104 -105 0
-104 -106 0
-104 -107 0
-104 -108 0
-104 -109 0
-104 -110 0
-104 -111 0
-105 -106 0
-105 -107 0
-105 -108 0
-105 -109 0
-105 -110 0
-105 -111 0
-106 -107 0
-106 -108 0
-106 -109 0
-106 -110 0
-106 -111 0
-107 -108 0
-107 -109 0
-107 -110 0
-107 -111 0
-108 -109 0
-108 -110 0
-108 -111 0
-109 -110 0
-109 -111 0
-110 -111 0
-101 112 113 114 115 116 117 118 119 0
-112 -113 0
-112 -114 0
-112 -115 0
-112 -116 0
-112 -117 0
-112 -118 0
-112 -119 0
-113 -114 0
-113 -115 0
-113 -116 0
-113 -117 0
-113 -118 0
-113 -119 0
-114 -115 0
-114 -116 0
-114 -117 0
-114 -118 0
-114 -119 0
-115 -116 0
-115 -117 0
-115 -118 0
-115 -119 0
-116 -117 0
-116 -118 0
-116 -119 0
-117 -118 0
-117 -119 0
-118 -119 0
-101 111 104 110 0
-101 -113 109 0
-101 -116 104 0
-101 -118 106 0
-101 -114 110 0
-101 -119 107 0
-101 -112 108 0
-101 -117 105 0
-101 -115 111 0
-101 113 116 118 114 119 112 117 115 0
-1 101 0
-101 1 0
-121 0
-120 123 124 125 126 127 128 129 130 0
-123 -124 0
-123 -125 0
-123 -126 0
-123 -127 0
-123 -128 0
-123 -129 0
-123 -130 0
-124 -125 0
-124 -126 0
-124 -127 0
-124 -128 0
-124 -129 0
-124 -130 0
-125 -126 0
-125 -127 0
-125 -128 0
-125 -129 0
-125 -130 0
-126 -127 0
-126 -128 0
-126 -129 0
-126 -130 0
-127 -128 0
-127 -129 0
-127 -130 0
-128 -129 0
-128 -130 0
-129 -130 0
-120 131 132 133 134 135 136 137 138 0
-131 -132 0
-131 -133 0
-131 -134 0
-131 -135 0
-131 -136 0
-131 -137 0
-131 -138 0
-132 -133 0
-132 -134 0
-132 -135 0
-132 -136 0
-132 -137 0
-132 -138 0
-133 -134 0
-133 -135 0
-133 -136 0
-133 -137 0
-133 -138 0
-134 -135 0
-134 -136 0
-134 -137 0
-134 -138 0
-135 -136 0
-135 -137 0
-135 -138 0
-136 -137 0
-136 -138 0
-137 -138 0
-120 129 123 130 0
-120 -133 129 0
-120 -135 123 0
-120 -136 124 0
-120 -132 128 0
-120 -134 130 0
-120 -138 126 0
-120 -137 125 0
-120 -131 127 0
-120 133 135 136 132 134 138 137 131 0
-1 120 0
-120 1 0
-140 0
-139 142 143 144 145 146 147 148 149 0
-142 -143 0
-142 -144 0
-142 -145 0
-142 -146 0
-142 -147 0
-142 -148 0
-142 -149 0
-143 -144 0
-143 -145 0
-143 -146 0
-143 -147 0
-143 -148 0
-143 -149 0
-144 -145 0
-144 -146 0
-144 -147 0
-144 -148 0
-144 -149 0
-145 -146 0
-145 -147 0
-145 -148 0
-145 -149 0
-146 -147 0
-146 -148 0
-146 -149 0
-147 -148 0
-147 -149 0
-148 -149 0
-139 150 151 152 153 154 155 156 157 0
-150 -151 0
-150 -152 0
-150 -153 0
-150 -154 0
-150 -155 0
-150 -156 0
-150 -157 0
-151 -152 0
-151 -153 0
-151 -154 0
-151 -155 0
-151 -156 0
-151 -157 0
-152 -153 0
-152 -154 0
-152 -155 0
-152 -156 0
-152 -157 0
-153 -154 0
-153 -155 0
-153 -156 0
-153 -157 0
-154 -155 0
-154 -156 0
-154 -157 0
-155 -156 0
-155 -157 0
-156 -157 0
-139 149 142 148 0
-139 -154 142 0
-139 -157 145 0
-139 -150 146 0
-139 -155 143 0
-139 -151 147 0
-139 -153 149 0
-139 -152 148 0
-139 -156 144 0
-139 154 157 150 155 151 153 152 156 0
-1 139 0
-139 1 0
-159 0
-158 161 162 163 164 165 166 167 168 0
-161 -162 0
-161 -163 0
-161 -164 0
-161 -165 0
-161 -166 0
-161 -167 0
-161 -168 0
-162 -163 0
-162 -164 0
-162 -165 0
-162 -166 0
-162 -167 0
-162 -168 0
-163 -164 0
-163 -165 0
-163 -166 0
-163 -167 0
-163 -168 0
-164 -165 0
-164 -166 0
-164 -167 0
-164 -168 0
-165 -166 0
-165 -167 0
-165 -168 0
-166 -167 0
-166 -168 0
-167 -168 0
-158 169 170 171 172 173 174 175 176 0
-169 -170 0
-169 -171 0
-169 -172 0
-169 -173 0
-169 -174 0
-169 -175 0
-169 -176 0
-170 -171 0
-170 -172 0
-170 -173 0
-170 -174 0
-170 -175 0
-170 -176 0
-171 -172 0
-171 -173 0
-171 -174 0
-171 -175 0
-171 -176 0
-172 -173 0
-172 -174 0
-172 -175 0
-172 -176 0
-173 -174 0
-173 -175 0
-173 -176 0
-174 -175 0
-174 -176 0
-175 -176 0
-158 -167 0
-158 -166 0
-158 -162 0
-158 -161 0
-158 -169 165 0
-158 -171 167 0
-158 -175 163 0
-158 -176 164 0
-158 -172 168 0
-158 -170 166 0
-158 -174 162 0
-158 -173 161 0
-158 169 171 175 176 172 170 174 173 0
-1 158 0
-158 1 0
-178 0
-177 180 181 182 183 184 185 186 187 0
-180 -181 0
-180 -182 0
-180 -183 0
-180 -184 0
-180 -185 0
-180 -186 0
-180 -187 0
-181 -182 0
-181 -183 0
-181 -184 0
-181 -185 0
-181 -186 0
-181 -187 0
-182 -183 0
-182 -184 0
-182 -185 0
-182 -186 0
-182 -187 0
-183 -184 0
-183 -185 0
-183 -186 0
-183 -187 0
-184 -185 0
-184 -186 0
-184 -187 0
-185 -186 0
-185 -187 0
-186 -187 0
-177 188 189 190 191 192 193 194 195 0
-188 -189 0
-188 -190 0
-188 -191 0
-188 -192 0
-188 -193 0
-188 -194 0
-188 -195 0
-189 -190 0
-189 -191 0
-189 -192 0
-189 -193 0
-189 -194 0
-189 -195 0
-190 -191 0
-190 -192 0
-190 -193 0
-190 -194 0
-190 -195 0
-191 -192 0
-191 -193 0
-191 -194 0
-191 -195 0
-192 -193 0
-192 -194 0
-192 -195 0
-193 -194 0
-193 -195 0
-194 -195 0
-177 -191 187 0
-177 -190 186 0
-177 -192 180 0
-177 -195 183 0
-177 -194 182 0
-177 -189 185 0
-177 -188 184 0
-177 -193 181 0
-177 191 190 192 195 194 189 188 193 0
-177 -180 0
-177 -181 0
-177 -185 0
-177 -186 0
-1 177 0
-177 1 0
-197 0
-196 199 200 201 202 203 204 205 206 0
-199 -200 0
-199 -201 0
-199 -202 0
-199 -203 0
-199 -204 0
-199 -205 0
-199 -206 0
-200 -201 0
-200 -202 0
-200 -203 0
-200 -204 0
-200 -205 0
-200 -206 0
-201 -202 0
-201 -203 0
-201 -204 0
-201 -205 0
-201 -206 0
-202 -203 0
-202 -204 0
-202 -205 0
-202 -206 0
-203 -204 0
-203 -205 0
-203 -206 0
-204 -205 0
-204 -206 0
-205 -206 0
-196 207 208 209 210 211 212 213 214 0
-207 -208 0
-207 -209 0
-207 -210 0
-207 -211 0
-207 -212 0
-207 -213 0
-207 -214 0
-208 -209 0
-208 -210 0
-208 -211 0
-208 -212 0
-208 -213 0
-208 -214 0
-209 -210 0
-209 -211 0
-209 -212 0
-209 -213 0
-209 -214 0
-210 -211 0
-210 -212 0
-210 -213 0
-210 -214 0
-211 -212 0
-211 -213 0
-211 -214 0
-212 -213 0
-212 -214 0
-213 -214 0
-196 -209 205 0
-196 -208 204 0
-196 -213 201 0
-196 -214 202 0
-196 -211 199 0
-196 -207 203 0
-196 -212 200 0
-196 -210 206 0
-196 209 208 213 214 211 207 212 210 0
-196 -204 0
-196 -200 0
-196 -199 0
-196 -205 0
-1 196 0
-196 1 0
-216 0
-215 218 219 220 221 222 223 224 225 0
-218 -219 0
-218 -220 0
-218 -221 0
-218 -222 0
-218 -223 0
-218 -224 0
-218 -225 0
-219 -220 0
-219 -221 0
-219 -222 0
-219 -223 0
-219 -224 0
-219 -225 0
-220 -221 0
-220 -222 0
-220 -223 0
-220 -224 0
-220 -225 0
-221 -222 0
-221 -223 0
-221 -224 0
-221 -225 0
-222 -223 0
-222 -224 0
-222 -225 0
-223 -224 0
-223 -225 0
-224 -225 0
-215 226 227 228 229 230 231 232 233 0
-226 -227 0
-226 -228 0
-226 -229 0
-226 -230 0
-226 -231 0
-226 -232 0
-226 -233 0
-227 -228 0
-227 -229 0
-227 -230 0
-227 -231 0
-227 -232 0
-227 -233 0
-228 -229 0
-228 -230 0
-228 -231 0
-228 -232 0
-228 -233 0
-229 -230 0
-229 -231 0
-229 -232 0
-229 -233 0
-230 -231 0
-230 -232 0
-230 -233 0
-231 -232 0
-231 -233 0
-232 -233 0
-215 -223 0
-215 -219 0
-215 -224 0
-215 -218 0
-215 -226 222 0
-215 -229 225 0
-215 -227 223 0
-215 -228 224 0
-215 -233 221 0
-215 -231 219 0
-215 -230 218 0
-215 -232 220 0
-215 226 229 227 228 233 231 230 232 0
-1 215 0
-215 1 0
-235 0
-234 237 238 239 240 241 242 243 244 0
-237 -238 0
-237 -239 0
-237 -240 0
-237 -241 0
-237 -242 0
-237 -243 0
-237 -244 0
-238 -239 0
-238 -240 0
-238 -241 0
-238 -242 0
-238 -243 0
-238 -244 0
-239 -240 0
-239 -241 0
-239 -242 0
-239 -243 0
-239 -244 0
-240 -241 0
-240 -242 0
-240 -243 0
-240 -244 0
-241 -242 0
-241 -243 0
-241 -244 0
-242 -243 0
-242 -244 0
-243 -244 0
-234 245 246 247 248 249 250 251 252 0
-245 -246 0
-245 -247 0
-245 -248 0
-245 -249 0
-245 -250 0
-245 -251 0
-245 -252 0
-246 -247 0
-246 -248 0
-246 -249 0
-246 -250 0
-246 -251 0
-246 -252 0
-247 -248 0
-247 -249 0
-247 -250 0
-247 -251 0
-247 -252 0
-248 -249 0
-248 -250 0
-248 -251 0
-248 -252 0
-249 -250 0
-249 -251 0
-249 -252 0
-250 -251 0
-250 -252 0
-251 -252 0
-234 -242 0
-234 -238 0
-234 -237 0
-234 -243 0
-234 -252 240 0
-234 -251 239 0
-234 -247 243 0
-234 -249 237 0
-234 -250 238 0
-234 -246 242 0
-234 -248 244 0
-234 -245 241 0
-234 252 251 247 249 250 246 248 245 0
-1 234 0
-234 1 0
-254 0
-253 256 257 258 259 260 261 262 263 0
-256 -257 0
-256 -258 0
-256 -259 0
-256 -260 0
-256 -261 0
-256 -262 0
-256 -263 0
-257 -258 0
-257 -259 0
-257 -260 0
-257 -261 0
-257 -262 0
-257 -263 0
-258 -259 0
-258 -260 0
-258 -261 0
-258 -262 0
-258 -263 0
-259 -260 0
-259 -261 0
-259 -262 0
-259 -263 0
-260 -261 0
-260 -262 0
-260 -263 0
-261 -262 0
-261 -263 0
-262 -263 0
-253 264 265 266 267 268 269 270 271 0
-264 -265 0
-264 -266 0
-264 -267 0
-264 -268 0
-264 -269 0
-264 -270 0
-264 -271 0
-265 -266 0
-265 -267 0
-265 -268 0
-265 -269 0
-265 -270 0
-265 -271 0
-266 -267 0
-266 -268 0
-266 -269 0
-266 -270 0
-266 -271 0
-267 -268 0
-267 -269 0
-267 -270 0
-267 -271 0
-268 -269 0
-268 -270 0
-268 -271 0
-269 -270 0
-269 -271 0
-270 -271 0
-253 -266 262 0
-253 -269 257 0
-253 -265 261 0
-253 -271 259 0
-253 -268 256 0
-253 -267 263 0
-253 -264 260 0
-253 -270 258 0
-253 266 269 265 271 268 267 264 270 0
-253 -257 0
-253 -262 0
-253 -256 0
-253 -261 0
-1 253 0
-253 1 0
-273 0
-272 275 276 277 278 279 280 281 282 0
-275 -276 0
-275 -277 0
-275 -278 0
-275 -279 0
-275 -280 0
-275 -281 0
-275 -282 0
-276 -277 0
-276 -278 0
-276 -279 0
-276 -280 0
-276 -281 0
-276 -282 0
-277 -278 0
-277 -279 0
-277 -280 0
-277 -281 0
-277 -282 0
-278 -279 0
-278 -280 0
-278 -281 0
-278 -282 0
-279 -280 0
-279 -281 0
-279 -282 0
-280 -281 0
-280 -282 0
-281 -282 0
-272 283 284 285 286 287 288 289 290 0
-283 -284 0
-283 -285 0
-283 -286 0
-283 -287 0
-283 -288 0
-283 -289 0
-283 -290 0
-284 -285 0
-284 -286 0
-284 -287 0
-284 -288 0
-284 -289 0
-284 -290 0
-285 -286 0
-285 -287 0
-285 -288 0
-285 -289 0
-285 -290 0
-286 -287 0
-286 -288 0
-286 -289 0
-286 -290 0
-287 -288 0
-287 -289 0
-287 -290 0
-288 -289 0
-288 -290 0
-289 -290 0
-272 -281 0
-272 -276 0
-272 -280 0
-272 -275 0
-272 -286 282 0
-272 -283 279 0
-272 -287 275 0
-272 -290 278 0
-272 -288 276 0
-272 -284 280 0
-272 -289 277 0
-272 -285 281 0
-272 286 283 287 290 288 284 289 285 0
-1 272 0
-272 1 0
-292 0
-291 294 295 296 297 298 299 300 301 0
-294 -295 0
-294 -296 0
-294 -297 0
-294 -298 0
-294 -299 0
-294 -300 0
-294 -301 0
-295 -296 0
-295 -297 0
-295 -298 0
-295 -299 0
-295 -300 0
-295 -301 0
-296 -297 0
-296 -298 0
-296 -299 0
-296 -300 0
-296 -301 0
-297 -298 0
-297 -299 0
-297 -300 0
-297 -301 0
-298 -299 0
-298 -300 0
-298 -301 0
-299 -300 0
-299 -301 0
-300 -301 0
-291 302 303 304 305 306 307 308 309 0
-302 -303 0
-302 -304 0
-302 -305 0
-302 -306 0
-302 -307 0
-302 -308 0
-302 -309 0
-303 -304 0
-303 -305 0
-303 -306 0
-303 -307 0
-303 -308 0
-303 -309 0
-304 -305 0
-304 -306 0
-304 -307 0
-304 -308 0
-304 -309 0
-305 -306 0
-305 -307 0
-305 -308 0
-305 -309 0
-306 -307 0
-306 -308 0
-306 -309 0
-307 -308 0
-307 -309 0
-308 -309 0
-291 -299 0
-291 -300 0
-291 -295 0
-291 -294 0
-291 -305 301 0
-291 -309 297 0
-291 -303 299 0
-291 -308 296 0
-291 -304 300 0
-291 -306 294 0
-291 -302 298 0
-291 -307 295 0
-291 305 309 303 308 304 306 302 307 0
-1 291 0
-291 1 0
-311 0
-310 313 314 315 316 317 318 319 320 0
-313 -314 0
-313 -315 0
-313 -316 0
-313 -317 0
-313 -318 0
-313 -319 0
-313 -320 0
-314 -315 0
-314 -316 0
-314 -317 0
-314 -318 0
-314 -319 0
-314 -320 0
-315 -316 0
-315 -317 0
-315 -318 0
-315 -319 0
-315 -320 0
-316 -317 0
-316 -318 0
-316 -319 0
-316 -320 0
-317 -318 0
-317 -319 0
-317 -320 0
-318 -319 0
-318 -320 0
-319 -320 0
-310 321 322 323 324 325 326 327 328 0
-321 -322 0
-321 -323 0
-321 -324 0
-321 -325 0
-321 -326 0
-321 -327 0
-321 -328 0
-322 -323 0
-322 -324 0
-322 -325 0
-322 -326 0
-322 -327 0
-322 -328 0
-323 -324 0
-323 -325 0
-323 -326 0
-323 -327 0
-323 -328 0
-324 -325 0
-324 -326 0
-324 -327 0
-324 -328 0
-325 -326 0
-325 -327 0
-325 -328 0
-326 -327 0
-326 -328 0
-327 -328 0
-310 -319 0
-310 -318 0
-310 -313 0
-310 -314 0
-310 -322 318 0
-310 -325 313 0
-310 -321 317 0
-310 -324 320 0
-310 -323 319 0
-310 -327 315 0
-310 -326 314 0
-310 -328 316 0
-310 322 325 321 324 323 327 326 328 0
-1 310 0
-310 1 0
-330 0
-329 332 333 334 335 336 337 338 339 0
-332 -333 0
-332 -334 0
-332 -335 0
-332 -336 0
-332 -337 0
-332 -338 0
-332 -339 0
-333 -334 0
-333 -335 0
-333 -336 0
-333 -337 0
-333 -338 0
-333 -339 0
-334 -335 0
-334 -336 0
-334 -337 0
-334 -338 0
-334 -339 0
-335 -336 0
-335 -337 0
-335 -338 0
-335 -339 0
-336 -337 0
-336 -338 0
-336 -339 0
-337 -338 0
-337 -339 0
-338 -339 0
-329 340 341 342 343 344 345 346 0
-340 -341 0
-340 -342 0
-340 -343 0
-340 -344 0
-340 -345 0
-340 -346 0
-341 -342 0
-341 -343 0
-341 -344 0
-341 -345 0
-341 -346 0
-342 -343 0
-342 -344 0
-342 -345 0
-342 -346 0
-343 -344 0
-343 -345 0
-343 -346 0
-344 -345 0
-344 -346 0
-345 -346 0
-329 347 348 349 350 351 352 353 354 355 356 357 358 359 360 361 362 363 364 0
-347 -348 0
-347 -349 0
-347 -350 0
-347 -351 0
-347 -352 0
-347 -353 0
-347 -354 0
-347 -355 0
-347 -356 0
-347 -357 0
-347 -358 0
-347 -359 0
-347 -360 0
-347 -361 0
-347 -362 0
-347 -363 0
-347 -364 0
-348 -349 0
-348 -350 0
-348 -351 0
-348 -352 0
-348 -353 0
-348 -354 0
-348 -355 0
-348 -356 0
-348 -357 0
-348 -358 0
-348 -359 0
-348 -360 0
-348 -361 0
-348 -362 0
-348 -363 0
-348 -364 0
-349 -350 0
-349 -351 0
-349 -352 0
-349 -353 0
-349 -354 0
-349 -355 0
-349 -356 0
-349 -357 0
-349 -358 0
-349 -359 0
-349 -360 0
-349 -361 0
-349 -362 0
-349 -363 0
-349 -364 0
-350 -351 0
-350 -352 0
-350 -353 0
-350 -354 0
-350 -355 0
-350 -356 0
-350 -357 0
-350 -358 0
-350 -359 0
-350 -360 0
-350 -361 0
-350 -362 0
-350 -363 0
-350 -364 0
-351 -352 0
-351 -353 0
-351 -354 0
-351 -355 0
-351 -356 0
-351 -357 0
-351 -358 0
-351 -359 0
-351 -360 0
-351 -361 0
-351 -362 0
-351 -363 0
-351 -364 0
-352 -353 0
-352 -354 0
-352 -355 0
-352 -356 0
-352 -357 0
-352 -358 0
-352 -359 0
-352 -360 0
-352 -361 0
-352 -362 0
-352 -363 0
-352 -364 0
-353 -354 0
-353 -355 0
-353 -356 0
-353 -357 0
-353 -358 0
-353 -359 0
-353 -360 0
-353 -361 0
-353 -362 0
-353 -363 0
-353 -364 0
-354 -355 0
-354 -356 0
-354 -357 0
-354 -358 0
-354 -359 0
-354 -360 0
-354 -361 0
-354 -362 0
-354 -363 0
-354 -364 0
-355 -356 0
-355 -357 0
-355 -358 0
-355 -359 0
-355 -360 0
-355 -361 0
-355 -362 0
-355 -363 0
-355 -364 0
-356 -357 0
-356 -358 0
-356 -359 0
-356 -360 0
-356 -361 0
-356 -362 0
-356 -363 0
-356 -364 0
-357 -358 0
-357 -359 0
-357 -360 0
-357 -361 0
-357 -362 0
-357 -363 0
-357 -364 0
-358 -359 0
-358 -360 0
-358 -361 0
-358 -362 0
-358 -363 0
-358 -364 0
-359 -360 0
-359 -361 0
-359 -362 0
-359 -363 0
-359 -364 0
-360 -361 0
-360 -362 0
-360 -363 0
-360 -364 0
-361 -362 0
-361 -363 0
-361 -364 0
-362 -363 0
-362 -364 0
-363 -364 0
-329 -340 338 0
-329 -342 332 0
-329 -343 333 0
-329 -341 334 0
-329 -344 336 0
-329 -346 337 0
-329 -345 337 0
-329 340 342 343 341 344 346 345 0
-329 -339 0
-329 -335 0
-1 329 0
-329 1 0
-366 0
-365 368 369 370 371 372 373 374 375 0
-368 -369 0
-368 -370 0
-368 -371 0
-368 -372 0
-368 -373 0
-368 -374 0
-368 -375 0
-369 -370 0
-369 -371 0
-369 -372 0
-369 -373 0
-369 -374 0
-369 -375 0
-370 -371 0
-370 -372 0
-370 -373 0
-370 -374 0
-370 -375 0
-371 -372 0
-371 -373 0
-371 -374 0
-371 -375 0
-372 -373 0
-372 -374 0
-372 -375 0
-373 -374 0
-373 -375 0
-374 -375 0
-365 376 377 378 379 380 381 382 0
-376 -377 0
-376 -378 0
-376 -379 0
-376 -380 0
-376 -381 0
-376 -382 0
-377 -378 0
-377 -379 0
-377 -380 0
-377 -381 0
-377 -382 0
-378 -379 0
-378 -380 0
-378 -381 0
-378 -382 0
-379 -380 0
-379 -381 0
-379 -382 0
-380 -381 0
-380 -382 0
-381 -382 0
-365 383 384 385 386 387 388 389 390 391 392 393 394 395 396 397 398 399 0
-383 -384 0
-383 -385 0
-383 -386 0
-383 -387 0
-383 -388 0
-383 -389 0
-383 -390 0
-383 -391 0
-383 -392 0
-383 -393 0
-383 -394 0
-383 -395 0
-383 -396 0
-383 -397 0
-383 -398 0
-383 -399 0
-384 -385 0
-384 -386 0
-384 -387 0
-384 -388 0
-384 -389 0
-384 -390 0
-384 -391 0
-384 -392 0
-384 -393 0
-384 -394 0
-384 -395 0
-384 -396 0
-384 -397 0
-384 -398 0
-384 -399 0
-385 -386 0
-385 -387 0
-385 -388 0
-385 -389 0
-385 -390 0
-385 -391 0
-385 -392 0
-385 -393 0
-385 -394 0
-385 -395 0
-385 -396 0
-385 -397 0
-385 -398 0
-385 -399 0
-386 -387 0
-386 -388 0
-386 -389 0
-386 -390 0
-386 -391 0
-386 -392 0
-386 -393 0
-386 -394 0
-386 -395 0
-386 -396 0
-386 -397 0
-386 -398 0
-386 -399 0
-387 -388 0
-387 -389 0
-387 -390 0
-387 -391 0
-387 -392 0
-387 -393 0
-387 -394 0
-387 -395 0
-387 -396 0
-387 -397 0
-387 -398 0
-387 -399 0
-388 -389 0
-388 -390 0
-388 -391 0
-388 -392 0
-388 -393 0
-388 -394 0
-388 -395 0
-388 -396 0
-388 -397 0
-388 -398 0
-388 -399 0
-389 -390 0
-389 -391 0
-389 -392 0
-389 -393 0
-389 -394 0
-389 -395 0
-389 -396 0
-389 -397 0
-389 -398 0
-389 -399 0
-390 -391 0
-390 -392 0
-390 -393 0
-390 -394 0
-390 -395 0
-390 -396 0
-390 -397 0
-390 -398 0
-390 -399 0
-391 -392 0
-391 -393 0
-391 -394 0
-391 -395 0
-391 -396 0
-391 -397 0
-391 -398 0
-391 -399 0
-392 -393 0
-392 -394 0
-392 -395 0
-392 -396 0
-392 -397 0
-392 -398 0
-392 -399 0
-393 -394 0
-393 -395 0
-393 -396 0
-393 -397 0
-393 -398 0
-393 -399 0
-394 -395 0
-394 -396 0
-394 -397 0
-394 -398 0
-394 -399 0
-395 -396 0
-395 -397 0
-395 -398 0
-395 -399 0
-396 -397 0
-396 -398 0
-396 -399 0
-397 -398 0
-397 -399 0
-398 -399 0
-365 -380 372 0
-365 -381 373 0
-365 -379 369 0
-365 -378 368 0
-365 -382 373 0
-365 -377 370 0
-365 -376 374 0
-365 380 381 379 378 382 377 376 0
-365 -375 0
-365 -371 0
-1 365 0
-365 1 0
-401 0
-400 403 404 405 406 407 408 409 410 0
-403 -404 0
-403 -405 0
-403 -406 0
-403 -407 0
-403 -408 0
-403 -409 0
-403 -410 0
-404 -405 0
-404 -406 0
-404 -407 0
-404 -408 0
-404 -409 0
-404 -410 0
-405 -406 0
-405 -407 0
-405 -408 0
-405 -409 0
-405 -410 0
-406 -407 0
-406 -408 0
-406 -409 0
-406 -410 0
-407 -408 0
-407 -409 0
-407 -410 0
-408 -409 0
-408 -410 0
-409 -410 0
-400 411 412 413 414 415 416 417 0
-411 -412 0
-411 -413 0
-411 -414 0
-411 -415 0
-411 -416 0
-411 -417 0
-412 -413 0
-412 -414 0
-412 -415 0
-412 -416 0
-412 -417 0
-413 -414 0
-413 -415 0
-413 -416 0
-413 -417 0
-414 -415 0
-414 -416 0
-414 -417 0
-415 -416 0
-415 -417 0
-416 -417 0
-400 418 419 420 421 422 423 424 425 426 427 428 429 430 431 432 433 434 435 436 437 0
-418 -419 0
-418 -420 0
-418 -421 0
-418 -422 0
-418 -423 0
-418 -424 0
-418 -425 0
-418 -426 0
-418 -427 0
-418 -428 0
-418 -429 0
-418 -430 0
-418 -431 0
-418 -432 0
-418 -433 0
-418 -434 0
-418 -435 0
-418 -436 0
-418 -437 0
-419 -420 0
-419 -421 0
-419 -422 0
-419 -423 0
-419 -424 0
-419 -425 0
-419 -426 0
-419 -427 0
-419 -428 0
-419 -429 0
-419 -430 0
-419 -431 0
-419 -432 0
-419 -433 0
-419 -434 0
-419 -435 0
-419 -436 0
-419 -437 0
-420 -421 0
-420 -422 0
-420 -423 0
-420 -424 0
-420 -425 0
-420 -426 0
-420 -427 0
-420 -428 0
-420 -429 0
-420 -430 0
-420 -431 0
-420 -432 0
-420 -433 0
-420 -434 0
-420 -435 0
-420 -436 0
-420 -437 0
-421 -422 0
-421 -423 0
-421 -424 0
-421 -425 0
-421 -426 0
-421 -427 0
-421 -428 0
-421 -429 0
-421 -430 0
-421 -431 0
-421 -432 0
-421 -433 0
-421 -434 0
-421 -435 0
-421 -436 0
-421 -437 0
-422 -423 0
-422 -424 0
-422 -425 0
-422 -426 0
-422 -427 0
-422 -428 0
-422 -429 0
-422 -430 0
-422 -431 0
-422 -432 0
-422 -433 0
-422 -434 0
-422 -435 0
-422 -436 0
-422 -437 0
-423 -424 0
-423 -425 0
-423 -426 0
-423 -427 0
-423 -428 0
-423 -429 0
-423 -430 0
-423 -431 0
-423 -432 0
-423 -433 0
-423 -434 0
-423 -435 0
-423 -436 0
-423 -437 0
-424 -425 0
-424 -426 0
-424 -427 0
-424 -428 0
-424 -429 0
-424 -430 0
-424 -431 0
-424 -432 0
-424 -433 0
-424 -434 0
-424 -435 0
-424 -436 0
-424 -437 0
-425 -426 0
-425 -427 0
-425 -428 0
-425 -429 0
-425 -430 0
-425 -431 0
-425 -432 0
-425 -433 0
-425 -434 0
-425 -435 0
-425 -436 0
-425 -437 0
-426 -427 0
-426 -428 0
-426 -429 0
-426 -430 0
-426 -431 0
-426 -432 0
-426 -433 0
-426 -434 0
-426 -435 0
-426 -436 0
-426 -437 0
-427 -428 0
-427 -429 0
-427 -430 0
-427 -431 0
-427 -432 0
-427 -433 0
-427 -434 0
-427 -435 0
-427 -436 0
-427 -437 0
-428 -429 0
-428 -430 0
-428 -431 0
-428 -432 0
-428 -433 0
-428 -434 0
-428 -435 0
-428 -436 0
-428 -437 0
-429 -430 0
-429 -431 0
-429 -432 0
-429 -433 0
-429 -434 0
-429 -435 0
-429 -436 0
-429 -437 0
-430 -431 0
-430 -432 0
-430 -433 0
-430 -434 0
-430 -435 0
-430 -436 0
-430 -437 0
-431 -432 0
-431 -433 0
-431 -434 0
-431 -435 0
-431 -436 0
-431 -437 0
-432 -433 0
-432 -434 0
-432 -435 0
-432 -436 0
-432 -437 0
-433 -434 0
-433 -435 0
-433 -436 0
-433 -437 0
-434 -435 0
-434 -436 0
-434 -437 0
-435 -436 0
-435 -437 0
-436 -437 0
-400 -412 0
-400 -414 0
-400 -406 0
-400 -410 0
-400 -413 403 0
-400 -417 408 0
-400 -416 408 0
-400 -412 405 0
-400 -411 409 0
-400 -415 407 0
-400 -414 404 0
-400 413 417 416 412 411 415 414 0
-1 400 0
-400 1 0
-439 0
-438 441 442 443 444 445 446 447 448 0
-441 -442 0
-441 -443 0
-441 -444 0
-441 -445 0
-441 -446 0
-441 -447 0
-441 -448 0
-442 -443 0
-442 -444 0
-442 -445 0
-442 -446 0
-442 -447 0
-442 -448 0
-443 -444 0
-443 -445 0
-443 -446 0
-443 -447 0
-443 -448 0
-444 -445 0
-444 -446 0
-444 -447 0
-444 -448 0
-445 -446 0
-445 -447 0
-445 -448 0
-446 -447 0
-446 -448 0
-447 -448 0
-438 449 450 451 452 453 454 455 0
-449 -450 0
-449 -451 0
-449 -452 0
-449 -453 0
-449 -454 0
-449 -455 0
-450 -451 0
-450 -452 0
-450 -453 0
-450 -454 0
-450 -455 0
-451 -452 0
-451 -453 0
-451 -454 0
-451 -455 0
-452 -453 0
-452 -454 0
-452 -455 0
-453 -454 0
-453 -455 0
-454 -455 0
-438 456 457 458 459 460 461 462 463 464 465 466 467 468 469 470 471 472 473 474 475 476 0
-456 -457 0
-456 -458 0
-456 -459 0
-456 -460 0
-456 -461 0
-456 -462 0
-456 -463 0
-456 -464 0
-456 -465 0
-456 -466 0
-456 -467 0
-456 -468 0
-456 -469 0
-456 -470 0
-456 -471 0
-456 -472 0
-456 -473 0
-456 -474 0
-456 -475 0
-456 -476 0
-457 -458 0
-457 -459 0
-457 -460 0
-457 -461 0
-457 -462 0
-457 -463 0
-457 -464 0
-457 -465 0
-457 -466 0
-457 -467 0
-457 -468 0
-457 -469 0
-457 -470 0
-457 -471 0
-457 -472 0
-457 -473 0
-457 -474 0
-457 -475 0
-457 -476 0
-458 -459 0
-458 -460 0
-458 -461 0
-458 -462 0
-458 -463 0
-458 -464 0
-458 -465 0
-458 -466 0
-458 -467 0
-458 -468 0
-458 -469 0
-458 -470 0
-458 -471 0
-458 -472 0
-458 -473 0
-458 -474 0
-458 -475 0
-458 -476 0
-459 -460 0
-459 -461 0
-459 -462 0
-459 -463 0
-459 -464 0
-459 -465 0
-459 -466 0
-459 -467 0
-459 -468 0
-459 -469 0
-459 -470 0
-459 -471 0
-459 -472 0
-459 -473 0
-459 -474 0
-459 -475 0
-459 -476 0
-460 -461 0
-460 -462 0
-460 -463 0
-460 -464 0
-460 -465 0
-460 -466 0
-460 -467 0
-460 -468 0
-460 -469 0
-460 -470 0
-460 -471 0
-460 -472 0
-460 -473 0
-460 -474 0
-460 -475 0
-460 -476 0
-461 -462 0
-461 -463 0
-461 -464 0
-461 -465 0
-461 -466 0
-461 -467 0
-461 -468 0
-461 -469 0
-461 -470 0
-461 -471 0
-461 -472 0
-461 -473 0
-461 -474 0
-461 -475 0
-461 -476 0
-462 -463 0
-462 -464 0
-462 -465 0
-462 -466 0
-462 -467 0
-462 -468 0
-462 -469 0
-462 -470 0
-462 -471 0
-462 -472 0
-462 -473 0
-462 -474 0
-462 -475 0
-462 -476 0
-463 -464 0
-463 -465 0
-463 -466 0
-463 -467 0
-463 -468 0
-463 -469 0
-463 -470 0
-463 -471 0
-463 -472 0
-463 -473 0
-463 -474 0
-463 -475 0
-463 -476 0
-464 -465 0
-464 -466 0
-464 -467 0
-464 -468 0
-464 -469 0
-464 -470 0
-464 -471 0
-464 -472 0
-464 -473 0
-464 -474 0
-464 -475 0
-464 -476 0
-465 -466 0
-465 -467 0
-465 -468 0
-465 -469 0
-465 -470 0
-465 -471 0
-465 -472 0
-465 -473 0
-465 -474 0
-465 -475 0
-465 -476 0
-466 -467 0
-466 -468 0
-466 -469 0
-466 -470 0
-466 -471 0
-466 -472 0
-466 -473 0
-466 -474 0
-466 -475 0
-466 -476 0
-467 -468 0
-467 -469 0
-467 -470 0
-467 -471 0
-467 -472 0
-467 -473 0
-467 -474 0
-467 -475 0
-467 -476 0
-468 -469 0
-468 -470 0
-468 -471 0
-468 -472 0
-468 -473 0
-468 -474 0
-468 -475 0
-468 -476 0
-469 -470 0
-469 -471 0
-469 -472 0
-469 -473 0
-469 -474 0
-469 -475 0
-469 -476 0
-470 -471 0
-470 -472 0
-470 -473 0
-470 -474 0
-470 -475 0
-470 -476 0
-471 -472 0
-471 -473 0
-471 -474 0
-471 -475 0
-471 -476 0
-472 -473 0
-472 -474 0
-472 -475 0
-472 -476 0
-473 -474 0
-473 -475 0
-473 -476 0
-474 -475 0
-474 -476 0
-475 -476 0
-438 -448 0
-438 -444 0
-438 -455 446 0
-438 -449 447 0
-438 -450 443 0
-438 -453 445 0
-438 -452 442 0
-438 -454 446 0
-438 -451 441 0
-438 455 449 450 453 452 454 451 0
-438 -452 0
-438 -450 0
-1 438 0
-438 1 0
-478 0
-477 480 481 482 483 484 485 486 487 0
-480 -481 0
-480 -482 0
-480 -483 0
-480 -484 0
-480 -485 0
-480 -486 0
-480 -487 0
-481 -482 0
-481 -483 0
-481 -484 0
-481 -485 0
-481 -486 0
-481 -487 0
-482 -483 0
-482 -484 0
-482 -485 0
-482 -486 0
-482 -487 0
-483 -484 0
-483 -485 0
-483 -486 0
-483 -487 0
-484 -485 0
-484 -486 0
-484 -487 0
-485 -486 0
-485 -487 0
-486 -487 0
-477 488 489 490 491 492 493 494 0
-488 -489 0
-488 -490 0
-488 -491 0
-488 -492 0
-488 -493 0
-488 -494 0
-489 -490 0
-489 -491 0
-489 -492 0
-489 -493 0
-489 -494 0
-490 -491 0
-490 -492 0
-490 -493 0
-490 -494 0
-491 -492 0
-491 -493 0
-491 -494 0
-492 -493 0
-492 -494 0
-493 -494 0
-477 495 496 497 498 499 500 501 502 503 504 505 506 507 508 509 0
-495 -496 0
-495 -497 0
-495 -498 0
-495 -499 0
-495 -500 0
-495 -501 0
-495 -502 0
-495 -503 0
-495 -504 0
-495 -505 0
-495 -506 0
-495 -507 0
-495 -508 0
-495 -509 0
-496 -497 0
-496 -498 0
-496 -499 0
-496 -500 0
-496 -501 0
-496 -502 0
-496 -503 0
-496 -504 0
-496 -505 0
-496 -506 0
-496 -507 0
-496 -508 0
-496 -509 0
-497 -498 0
-497 -499 0
-497 -500 0
-497 -501 0
-497 -502 0
-497 -503 0
-497 -504 0
-497 -505 0
-497 -506 0
-497 -507 0
-497 -508 0
-497 -509 0
-498 -499 0
-498 -500 0
-498 -501 0
-498 -502 0
-498 -503 0
-498 -504 0
-498 -505 0
-498 -506 0
-498 -507 0
-498 -508 0
-498 -509 0
-499 -500 0
-499 -501 0
-499 -502 0
-499 -503 0
-499 -504 0
-499 -505 0
-499 -506 0
-499 -507 0
-499 -508 0
-499 -509 0
-500 -501 0
-500 -502 0
-500 -503 0
-500 -504 0
-500 -505 0
-500 -506 0
-500 -507 0
-500 -508 0
-500 -509 0
-501 -502 0
-501 -503 0
-501 -504 0
-501 -505 0
-501 -506 0
-501 -507 0
-501 -508 0
-501 -509 0
-502 -503 0
-502 -504 0
-502 -505 0
-502 -506 0
-502 -507 0
-502 -508 0
-502 -509 0
-503 -504 0
-503 -505 0
-503 -506 0
-503 -507 0
-503 -508 0
-503 -509 0
-504 -505 0
-504 -506 0
-504 -507 0
-504 -508 0
-504 -509 0
-505 -506 0
-505 -507 0
-505 -508 0
-505 -509 0
-506 -507 0
-506 -508 0
-506 -509 0
-507 -508 0
-507 -509 0
-508 -509 0
-477 -483 0
-477 -487 0
-477 -491 481 0
-477 -489 482 0
-477 -488 486 0
-477 -492 484 0
-477 -494 485 0
-477 -490 480 0
-477 -493 485 0
-477 491 489 488 492 494 490 493 0
-1 477 0
-477 1 0
-23 510 0
-510 23 0
a 46 64 83 102 121 140 159 178 197 216 235 254 273 292 311 330 366 401 439 478 0
